============================[ Problem Statistics ]=============================|                                                                             ||  Number of variables:          4242                                         ||  Number of clauses:           10272                                         ||  Parse time:                   0.66 s                                       ||                                                                             |============================[ Search Statistics ]==============================| Conflicts |          ORIGINAL         |          LEARNT          | Progress ||           |    Vars  Clauses Literals |    Limit  Clauses Lit/Cl |          |===============================================================================|       100 |    1591     6477  1052308 |     2374      100     53 | 62.501 % ||       250 |    1591     6477  1052308 |     2612      250     75 | 62.495 % |===============================================================================restarts              : 3conflicts             : 360            (362 /sec)decisions             : 625            (0.00 % random) (629 /sec)propagations          : 11975          (12047 /sec)conflict literals     : 29375          (94.61 % deleted)CPU time              : 0.994 sSATISFIABLE